# Objective value = 30
WA1n 0
WA1p 0
WA2n 1
WA2p 0
WB1n 0
WB1p 0
WB2n 0
WB2p 1
WC1n 1
WC1p 0
WD1n 1
WD1p 0
WE1n 1
WE1p 0
WF1n 1
WF1p 0
WG1n 1
WG1p 0
WH1n 1
WH1p 0
WI1n 1
WI1p 0
WJ1n 1
WJ1p 0
WK1n 9
WK1p 0
WK2n 0
WK2p 0
WT1n 7
WT1p 0
WT2n 1
WT2p 0
100 107
a 1
b 1
c 1
d 1
e 1
f 1
g 1
h 1
i 1
j 1
k 1
l 1
m 0
n 0
o 1
p 1
